300
200 200
1 159 458
2 159 999
3 159 356
4 159 344
5 159 782
6 159 96
7 159 935
8 158 889
9 158 188
10 157 386
11 157 93
12 156 86
13 156 41
14 156 689
15 156 602
16 156 174
17 156 344
18 155 907
19 155 158
20 154 471
21 154 327
22 154 888
23 151 573
24 151 129
25 151 945
26 151 729
27 150 338
28 150 858
29 149 242
30 149 167
31 149 755
32 148 956
33 147 355
34 147 93
35 146 563
36 146 58
37 146 34
38 145 503
39 145 708
40 145 944
41 144 203
42 144 419
43 143 314
44 142 350
45 142 59
46 142 596
47 141 457
48 141 947
49 140 45
50 140 328
51 139 612
52 139 190
53 137 334
54 137 595
55 135 648
56 133 359
57 133 189
58 132 647
59 132 12
60 131 255
61 130 361
62 130 526
63 129 834
64 129 218
65 129 507
66 129 339
67 128 138
68 128 342
69 127 238
70 127 430
71 127 222
72 126 491
73 125 269
74 125 153
75 124 783
76 123 398
77 121 460
78 121 93
79 121 208
80 119 536
81 119 134
82 118 603
83 118 480
84 118 294
85 117 304
86 117 995
87 117 454
88 117 216
89 116 860
90 116 948
91 115 807
92 115 60
93 115 265
94 115 15
95 114 400
96 114 804
97 114 794
98 113 223
99 112 264
100 112 253
101 110 901
102 110 631
103 109 202
104 109 113
105 109 813
106 109 636
107 107 101
108 106 228
109 106 700
110 106 5
111 105 634
112 105 677
113 104 148
114 104 324
115 103 41
116 103 456
117 102 526
118 101 685
119 99 503
120 99 862
121 98 33
122 98 138
123 98 717
124 98 765
125 96 332
126 94 843
127 94 462
128 93 878
129 93 819
130 93 210
131 93 294
132 91 778
133 91 254
134 91 805
135 90 612
136 90 369
137 89 176
138 89 658
139 88 372
140 88 77
141 88 389
142 88 594
143 88 850
144 87 403
145 87 513
146 86 723
147 85 13
148 84 157
149 84 563
150 84 862
151 84 965
152 83 289
153 83 802
154 83 422
155 83 772
156 83 623
157 83 117
158 83 6
159 82 946
160 82 298
161 82 676
162 81 325
163 81 158
164 80 857
165 80 391
166 80 705
167 79 3
168 78 378
169 78 125
170 78 438
171 78 356
172 77 369
173 77 811
174 76 52
175 76 580
176 75 338
177 75 841
178 75 842
179 75 68
180 75 131
181 74 450
182 74 956
183 73 779
184 73 198
185 72 763
186 71 191
187 68 926
188 68 987
189 67 680
190 67 214
191 67 105
192 66 268
193 66 935
194 66 911
195 66 736
196 66 435
197 65 945
198 65 816
199 65 482
200 65 191
201 63 806
202 62 580
203 62 270
204 62 372
205 61 633
206 60 250
207 60 558
208 60 259
209 60 959
210 59 637
211 59 59
212 58 660
213 58 141
214 57 879
215 56 129
216 55 368
217 55 640
218 54 499
219 54 496
220 54 382
221 54 110
222 54 660
223 54 707
224 53 243
225 53 74
226 53 580
227 53 849
228 53 325
229 52 78
230 52 321
231 51 511
232 51 583
233 51 869
234 51 104
235 51 695
236 51 975
237 49 281
238 49 631
239 49 589
240 49 748
241 48 983
242 48 794
243 48 529
244 47 975
245 47 357
246 47 718
247 47 604
248 46 216
249 46 615
250 46 831
251 45 967
252 45 405
253 44 786
254 41 740
255 41 994
256 40 778
257 40 133
258 38 2
259 37 51
260 37 862
261 37 1000
262 36 447
263 36 620
264 36 436
265 35 851
266 34 358
267 34 380
268 33 398
269 33 631
270 32 327
271 32 4
272 31 272
273 30 1000
274 30 472
275 30 66
276 30 879
277 30 150
278 29 942
279 28 626
280 28 928
281 28 310
282 27 995
283 26 984
284 25 524
285 25 294
286 25 260
287 25 352
288 24 979
289 24 102
290 24 892
291 24 262
292 24 578
293 24 48
294 24 873
295 23 349
296 22 224
297 22 773
298 21 39
299 21 350
300 20 121
